15	5 
444	4	3	92	2	94	0	12	4	91	1	7
306	4	2	21	1	19	0	87	3	11	4	66
207	4	1	14	3	13	0	75	4	16	2	20
378	2	2	95	4	66	0	7	1	77	3	7
283	2	2	34	4	89	3	6	1	45	0	15
471	2	4	88	3	77	2	20	1	53	0	76
375	2	4	9	3	27	0	52	1	88	2	74
553	2	3	69	2	52	0	62	1	88	4	98
411	2	3	90	0	62	4	9	2	61	1	52
331	2	4	5	2	54	3	59	0	88	1	15
367	2	0	41	1	50	4	78	3	53	2	23
510	2	0	38	4	72	2	91	3	68	1	71
334	1	0	45	3	95	4	52	2	25	1	6
258	1	3	30	1	66	0	23	4	36	2	17
507	1	2	95	0	71	3	76	1	8	4	88
